# Solution for model count
# Objective value = 10
z#1 0
z#2 1
z#3 1
z#4 1
z#5 0
z#6 0
z#7 0
z#8 0
z#9 0
z#10 0
z#11 1
z#12 1
z#13 0
z#14 0
z#15 1
z#16 0
z#17 1
z#18 0
z#19 1
z#20 1
z#21 0
z#22 0
z#23 1
z#24 0
x#24 0
x#23 914
x#22 0
x#21 0
x#20 220
x#19 380
x#18 0
x#17 419
x#16 0
x#15 3492
x#14 0
x#13 0
x#12 4
x#11 1156
x#10 0
x#9 0
x#8 0
x#7 0
x#6 0
x#5 0
x#4 1436
x#3 1574
x#2 405
x#1 0
